(set-option :produce-proofs true)
(set-logic AUFLIA)
(declare-fun P ( Int) Bool)
(declare-fun Q ( Int) Bool)
(assert (! (or (forall ((x Int)) (P x)) (forall ((x Int)) (Q x))) :named IP_0))
(assert (! (and (=> (P 3) (not (P 5))) (not (Q 7))) :named IP_1))
(check-sat)
(get-interpolants IP_0 IP_1)
(exit)
